<number of tasks>
29

<cycle time>
36

<task times>
1 7
2 19
3 15
4 5
5 12
6 10
7 8
8 16
9 2
10 6
11 21
12 10
13 9
14 4
15 14
16 7
17 14
18 17
19 10
20 16
21 1
22 9
23 25
24 14
25 14
26 2
27 10
28 7
29 20

<precedence relations>
1,3
1,25
2,6
2,26
3,4
4,5
5,8
5,13
6,8
7,9
7,12
7,25
8,11
8,16
9,10
10,14
10,15
11,17
12,15
13,17
14,16
15,19
16,18
17,20
18,22
19,21
20,23
21,22
22,23
23,24
23,28
24,29
25,29
26,27
27,29
28,29

<setup times forward>
1,3:3
1,6:1
1,10:3
1,12:1
1,14:2
1,15:1
1,19:3
1,21:3
1,25:3
1,26:1
1,27:1
2,3:3
2,4:1
2,5:1
2,6:1
2,10:3
2,12:1
2,13:1
2,14:2
2,15:1
2,19:3
2,21:3
2,25:3
2,26:1
3,2:3
3,4:4
3,6:2
3,7:3
3,9:3
3,12:4
3,14:5
3,15:2
3,19:6
3,21:6
3,26:4
3,27:2
4,2:1
4,5:2
4,6:2
4,7:1
4,9:1
4,10:4
4,14:1
4,15:2
4,19:2
4,21:2
4,25:4
4,27:2
5,2:1
5,7:1
5,9:1
5,10:2
5,12:2
5,14:3
5,19:4
5,21:4
5,25:2
5,26:2
6,1:1
6,3:2
6,4:2
6,7:1
6,9:1
6,10:2
6,12:2
6,14:3
6,19:4
6,21:4
6,25:2
6,26:2
7,3:3
7,4:1
7,5:1
7,6:1
7,8:1
7,11:2
7,12:1
7,13:1
7,20:3
7,25:3
7,26:1
7,27:1
8,7:1
8,9:1
8,10:2
8,11:3
8,12:2
8,14:3
8,16:3
8,19:4
8,21:4
8,25:2
8,26:2
9,3:3
9,4:1
9,5:1
9,6:1
9,8:1
9,10:3
9,11:2
9,12:1
9,13:1
9,20:3
9,25:3
9,26:1
9,27:1
10,1:3
10,2:3
10,4:4
10,5:2
10,6:2
10,8:2
10,11:5
10,12:4
10,13:2
10,14:5
10,15:2
10,17:3
10,20:6
10,26:4
10,27:2
11,7:2
11,9:2
11,10:5
11,12:1
11,13:3
11,15:3
11,17:2
11,18:2
11,19:1
11,21:1
11,22:1
11,25:5
11,26:1
11,27:3
12,1:1
12,2:1
12,3:4
12,5:2
12,6:2
12,8:2
12,9:1
12,10:4
12,11:1
12,13:2
12,14:1
12,15:2
12,16:1
12,17:1
12,18:1
12,20:2
12,25:4
12,27:2
13,2:1
13,7:1
13,9:1
13,10:2
13,11:3
13,12:2
13,14:3
13,16:3
13,17:1
13,18:1
13,19:4
13,21:4
13,22:4
13,25:2
13,26:2
14,1:2
14,2:2
14,3:5
14,4:1
14,5:3
14,6:3
14,8:3
14,12:1
14,13:3
14,15:3
14,17:2
14,19:1
14,20:1
14,21:1
14,25:5
14,26:1
14,27:3
15,1:1
15,2:1
15,3:2
15,4:2
15,11:3
15,14:3
15,16:3
15,17:1
15,18:1
15,19:4
15,20:4
15,25:2
15,26:2
16,12:1
16,13:3
16,15:3
16,17:2
16,18:2
16,19:1
16,20:1
16,21:1
16,25:5
16,26:1
16,27:3
17,10:3
17,12:1
17,14:2
17,15:1
17,16:2
17,19:3
17,20:3
17,21:3
17,22:3
17,25:3
17,26:1
17,27:1
18,11:2
18,12:1
18,13:1
18,15:1
18,19:3
18,20:3
18,21:3
18,22:3
18,25:3
18,26:1
18,27:1
19,1:3
19,2:3
19,3:6
19,4:2
19,5:4
19,6:4
19,8:4
19,11:1
19,13:4
19,14:1
19,16:1
19,17:3
19,18:3
19,25:6
19,26:2
19,27:4
20,7:3
20,9:3
20,10:6
20,12:2
20,14:1
20,15:4
20,16:1
20,18:3
20,23:5
20,25:6
20,26:2
20,27:4
21,1:3
21,2:3
21,3:6
21,4:2
21,5:4
21,6:4
21,8:4
21,11:1
21,13:4
21,14:1
21,16:1
21,17:3
21,18:3
21,25:6
21,26:2
21,27:4
22,11:1
22,13:4
22,17:3
22,23:5
22,25:6
22,26:2
22,27:4
23,24:3
23,25:1
23,26:3
23,27:1
24,25:4
24,27:2
24,28:3
25,2:3
25,4:4
25,5:2
25,6:2
25,8:2
25,9:3
25,11:5
25,12:4
25,13:2
25,14:5
25,15:2
25,16:5
25,17:3
25,18:3
25,19:6
25,20:6
25,21:6
25,22:6
25,23:1
25,24:4
25,26:4
25,27:2
25,28:1
25,29:4
26,1:1
26,3:4
26,5:2
26,6:2
26,7:1
26,8:2
26,9:1
26,10:4
26,11:1
26,13:2
26,14:1
26,15:2
26,16:1
26,17:1
26,18:1
26,19:2
26,20:2
26,21:2
26,22:2
26,23:3
26,25:4
26,27:2
26,28:3
27,1:1
27,3:2
27,4:2
27,7:1
27,9:1
27,10:2
27,11:3
27,12:2
27,14:3
27,16:3
27,17:1
27,18:1
27,19:4
27,20:4
27,21:4
27,22:4
27,23:1
27,24:2
27,25:2
27,28:1
27,29:2
28,24:3
28,25:1
28,26:3
28,27:1
28,29:3

<setup times backward>
1,12:1
1,14:2
1,19:3
1,21:3
1,26:1
2,4:1
2,12:1
2,14:2
2,19:3
2,21:3
3,1:3
3,2:3
3,6:2
3,7:3
3,9:3
3,12:4
3,14:5
3,15:2
3,19:6
3,21:6
3,26:4
3,27:2
4,14:1
4,19:2
4,21:2
5,1:1
5,2:1
5,4:2
5,7:1
5,9:1
5,12:2
5,14:3
5,19:4
5,21:4
5,26:2
6,1:1
6,2:1
6,4:2
6,7:1
6,9:1
6,12:2
6,14:3
6,19:4
6,21:4
6,26:2
7,4:1
7,11:2
7,20:3
7,26:1
8,1:1
8,2:1
8,4:2
8,7:1
8,9:1
8,12:2
8,14:3
8,19:4
8,21:4
8,26:2
9,4:1
9,11:2
9,12:1
9,20:3
9,26:1
10,1:3
10,2:3
10,4:4
10,5:2
10,6:2
10,7:3
10,8:2
10,9:3
10,11:5
10,12:4
10,13:2
10,17:3
10,20:6
10,26:4
10,27:2
11,19:1
11,21:1
11,22:1
12,11:1
12,14:1
12,16:1
12,20:2
13,1:1
13,2:1
13,4:2
13,7:1
13,9:1
13,11:3
13,12:2
13,14:3
13,16:3
13,18:1
13,19:4
13,21:4
13,22:4
13,26:2
14,19:1
14,20:1
14,21:1
15,1:1
15,2:1
15,4:2
15,7:1
15,9:1
15,11:3
15,12:2
15,14:3
15,16:3
15,17:1
15,18:1
15,20:4
15,26:2
16,19:1
16,20:1
16,21:1
17,4:1
17,11:2
17,12:1
17,14:2
17,16:2
17,19:3
17,21:3
17,22:3
17,26:1
18,4:1
18,11:2
18,12:1
18,14:2
18,16:2
18,19:3
18,20:3
18,21:3
18,26:1
23,1:2
23,2:2
23,4:3
23,5:1
23,6:1
23,7:2
23,8:1
23,9:2
23,11:4
23,12:3
23,13:1
23,14:4
23,15:1
23,16:4
23,17:2
23,18:2
23,19:5
23,20:5
23,21:5
23,22:5
23,26:3
23,27:1
24,11:1
24,14:1
24,16:1
24,19:2
24,20:2
24,21:2
24,22:2
25,1:3
25,2:3
25,4:4
25,5:2
25,6:2
25,7:3
25,8:2
25,9:3
25,11:5
25,12:4
25,13:2
25,14:5
25,15:2
25,16:5
25,17:3
25,18:3
25,19:6
25,20:6
25,21:6
25,22:6
25,23:1
25,24:4
25,26:4
25,27:2
25,28:1
26,11:1
26,14:1
26,16:1
26,19:2
26,20:2
26,21:2
26,22:2
27,1:1
27,2:1
27,4:2
27,7:1
27,9:1
27,11:3
27,12:2
27,14:3
27,16:3
27,17:1
27,18:1
27,19:4
27,20:4
27,21:4
27,22:4
27,24:2
27,26:2
28,1:2
28,2:2
28,4:3
28,5:1
28,6:1
28,7:2
28,8:1
28,9:2
28,11:4
28,12:3
28,13:1
28,14:4
28,15:1
28,16:4
28,17:2
28,18:2
28,19:5
28,20:5
28,21:5
28,22:5
28,24:3
28,26:3
28,27:1
29,11:1
29,14:1
29,16:1
29,19:2
29,20:2
29,21:2
29,22:2

<end>

<optimal SALBP-1 value>
10


<rand seed>
467321153

